[[72, 81, 71, 80, 70, 69, 78, 79, 88, 89, 90, 99, 98, 97, 96, 87, 86, 95, 94, 93, 92, 91, 82, 83, 73, 84, 85, 76, 77, 75, 68, 67, 59, 66], [74, 65, 64, 56, 57, 58, 49, 55, 46, 47, 38, 48, 39, 40, 50, 41, 42, 33, 32, 31, 30, 29, 37, 28, 19, 21, 22, 20, 13, 11, 10, 2, 12, 3, 4], [14, 5, 6, 7, 8, 9, 18, 17, 16, 15, 23, 24, 25, 26, 27, 35, 36, 44, 34, 43, 45, 54, 53, 52, 51, 60, 63, 62, 61]]